num_teams = 16;
num_weeks = 15;
num_periods = 8;

week = [|
0, 9, 2, 10, 3, 11, 4, 12, 5, 13, 6, 14, 7, 15, 8, 1 |
9, 0, 10, 3, 11, 4, 12, 5, 13, 6, 14, 7, 15, 8, 1, 2 |
2, 10, 0, 11, 4, 12, 5, 13, 6, 14, 7, 15, 8, 1, 9, 3 |
10, 3, 11, 0, 12, 5, 13, 6, 14, 7, 15, 8, 1, 9, 2, 4 |
3, 11, 4, 12, 0, 13, 6, 14, 7, 15, 8, 1, 9, 2, 10, 5 |
11, 4, 12, 5, 13, 0, 14, 7, 15, 8, 1, 9, 2, 10, 3, 6 |
4, 12, 5, 13, 6, 14, 0, 15, 8, 1, 9, 2, 10, 3, 11, 7 |
12, 5, 13, 6, 14, 7, 15, 0, 1, 9, 2, 10, 3, 11, 4, 8 |
5, 13, 6, 14, 7, 15, 8, 1, 0, 2, 10, 3, 11, 4, 12, 9 |
13, 6, 14, 7, 15, 8, 1, 9, 2, 0, 3, 11, 4, 12, 5, 10 |
6, 14, 7, 15, 8, 1, 9, 2, 10, 3, 0, 4, 12, 5, 13, 11 |
14, 7, 15, 8, 1, 9, 2, 10, 3, 11, 4, 0, 5, 13, 6, 12 |
7, 15, 8, 1, 9, 2, 10, 3, 11, 4, 12, 5, 0, 6, 14, 13 |
15, 8, 1, 9, 2, 10, 3, 11, 4, 12, 5, 13, 6, 0, 7, 14 |
8, 1, 9, 2, 10, 3, 11, 4, 12, 5, 13, 6, 14, 7, 0, 15 |
1, 2, 3, 4, 5, 6, 7, 8, 9, 10, 11, 12, 13, 14, 15, 0 |];
